(benchmark gametime
:status unknown
:logic QF_AUFBV
:extrafuns ((gtINDEX99  BitVec[32]))
:extrafuns ((gtFIELD__bitsForTID0__gtAGG____anonstruct_D_Work_4  Array[32:32]))
:extrafuns ((gtINDEX100  BitVec[32]))
:extrafuns ((gtAGG__rtDWork  BitVec[32]))
:extrafuns ((gtINDEX97  BitVec[32]))
:extrafuns ((gtINDEX98  BitVec[32]))
:extrafuns ((gtINDEX95  BitVec[32]))
:extrafuns ((gtINDEX96  BitVec[32]))
:extrafuns ((gtINDEX93  BitVec[32]))
:extrafuns ((gtINDEX94  BitVec[32]))
:extrafuns ((gtINDEX92  BitVec[32]))
:extrafuns ((gtINDEX91  BitVec[32]))
:extrafuns ((gtINDEX90  BitVec[32]))
:extrafuns ((gtINDEX89  BitVec[32]))
:extrafuns ((gtINDEX87  BitVec[32]))
:extrafuns ((gtINDEX88  BitVec[32]))
:extrafuns ((gtINDEX85  BitVec[32]))
:extrafuns ((gtINDEX86  BitVec[32]))
:extrafuns ((gtINDEX84  BitVec[32]))
:extrafuns ((gtINDEX82  BitVec[32]))
:extrafuns ((gtINDEX83  BitVec[32]))
:extrafuns ((gtINDEX80  BitVec[32]))
:extrafuns ((gtINDEX81  BitVec[32]))
:extrafuns ((gtINDEX79  BitVec[32]))
:extrafuns ((gtINDEX77  BitVec[32]))
:extrafuns ((gtINDEX78  BitVec[32]))
:extrafuns ((gtINDEX75  BitVec[32]))
:extrafuns ((gtINDEX76  BitVec[32]))
:extrafuns ((gtINDEX73  BitVec[32]))
:extrafuns ((gtINDEX74  BitVec[32]))
:extrafuns ((gtINDEX72  BitVec[32]))
:extrafuns ((gtINDEX70  BitVec[32]))
:extrafuns ((gtINDEX71  BitVec[32]))
:extrafuns ((gtINDEX68  BitVec[32]))
:extrafuns ((gtINDEX69  BitVec[32]))
:extrafuns ((gtINDEX66  BitVec[32]))
:extrafuns ((gtINDEX67  BitVec[32]))
:extrafuns ((gtINDEX64  BitVec[32]))
:extrafuns ((gtINDEX65  BitVec[32]))
:extrafuns ((gtINDEX62  BitVec[32]))
:extrafuns ((gtINDEX63  BitVec[32]))
:extrafuns ((gtINDEX60  BitVec[32]))
:extrafuns ((gtINDEX61  BitVec[32]))
:extrafuns ((gtINDEX58  BitVec[32]))
:extrafuns ((gtINDEX59  BitVec[32]))
:extrafuns ((gtINDEX56  BitVec[32]))
:extrafuns ((gtINDEX57  BitVec[32]))
:extrafuns ((gtINDEX54  BitVec[32]))
:extrafuns ((gtINDEX55  BitVec[32]))
:extrafuns ((gtINDEX52  BitVec[32]))
:extrafuns ((gtINDEX53  BitVec[32]))
:extrafuns ((gtINDEX50  BitVec[32]))
:extrafuns ((gtINDEX51  BitVec[32]))
:extrafuns ((gtINDEX48  BitVec[32]))
:extrafuns ((gtINDEX49  BitVec[32]))
:extrafuns ((gtINDEX46  BitVec[32]))
:extrafuns ((gtINDEX47  BitVec[32]))
:extrafuns ((gtINDEX45  BitVec[32]))
:extrafuns ((gtINDEX44  BitVec[32]))
:extrafuns ((gtINDEX43  BitVec[32]))
:extrafuns ((gtINDEX41  BitVec[32]))
:extrafuns ((gtINDEX42  BitVec[32]))
:extrafuns ((gtINDEX39  BitVec[32]))
:extrafuns ((gtINDEX40  BitVec[32]))
:extrafuns ((gtINDEX38  BitVec[32]))
:extrafuns ((gtINDEX36  BitVec[32]))
:extrafuns ((gtINDEX37  BitVec[32]))
:extrafuns ((gtINDEX34  BitVec[32]))
:extrafuns ((gtINDEX35  BitVec[32]))
:extrafuns ((gtINDEX33  BitVec[32]))
:extrafuns ((gtINDEX31  BitVec[32]))
:extrafuns ((gtINDEX32  BitVec[32]))
:extrafuns ((gtINDEX29  BitVec[32]))
:extrafuns ((gtINDEX30  BitVec[32]))
:extrafuns ((gtINDEX27  BitVec[32]))
:extrafuns ((gtINDEX28  BitVec[32]))
:extrafuns ((gtINDEX26  BitVec[32]))
:extrafuns ((gtINDEX24  BitVec[32]))
:extrafuns ((gtINDEX25  BitVec[32]))
:extrafuns ((gtINDEX22  BitVec[32]))
:extrafuns ((gtINDEX23  BitVec[32]))
:extrafuns ((gtINDEX20  BitVec[32]))
:extrafuns ((gtINDEX21  BitVec[32]))
:extrafuns ((gtINDEX18  BitVec[32]))
:extrafuns ((gtINDEX19  BitVec[32]))
:extrafuns ((gtINDEX16  BitVec[32]))
:extrafuns ((gtINDEX17  BitVec[32]))
:extrafuns ((gtINDEX14  BitVec[32]))
:extrafuns ((gtINDEX15  BitVec[32]))
:extrafuns ((gtINDEX12  BitVec[32]))
:extrafuns ((gtINDEX13  BitVec[32]))
:extrafuns ((gtINDEX10  BitVec[32]))
:extrafuns ((gtINDEX11  BitVec[32]))
:extrafuns ((gtINDEX8  BitVec[32]))
:extrafuns ((gtINDEX9  BitVec[32]))
:extrafuns ((gtINDEX6  BitVec[32]))
:extrafuns ((gtINDEX7  BitVec[32]))
:extrafuns ((gtINDEX4  BitVec[32]))
:extrafuns ((gtINDEX5  BitVec[32]))
:extrafuns ((gtINDEX2  BitVec[32]))
:extrafuns ((gtINDEX3  BitVec[32]))
:extrafuns ((gtINDEX0  BitVec[32]))
:extrafuns ((gtINDEX1  BitVec[32]))
:extrafuns ((gtFIELD__is_Eng__gtAGG____anonstruct_bitsForTID0_5_1_  Array[32:1]))
:extrafuns ((gtFIELD__is_Eng__gtAGG____anonstruct_bitsForTID0_5_2_  Array[32:1]))
:extrafuns ((sf_previousEvent_1_  BitVec[32]))
:extrafuns ((sfEvent__2_  BitVec[32]))
:extrafuns ((gtFIELD__is_Eng__gtAGG____anonstruct_bitsForTID0_5  Array[32:1]))
:extrafuns ((gtFIELD__sent__gtAGG____anonstruct_D_Work_4_1_  Array[32:32]))
:extrafuns ((gtFIELD__sent__gtAGG____anonstruct_D_Work_4_2_  Array[32:32]))
:extrafuns ((gtFIELD__is_active_Eng__gtAGG____anonstruct_bitsForTID0_5  Array[32:1]))
:extrafuns ((sfEvent__1_  BitVec[32]))
:extrafuns ((gtFIELD__is_PURI__gtAGG____anonstruct_bitsForTID0_5  Array[32:2]))
:extrafuns ((gtFIELD__is_active_PURI__gtAGG____anonstruct_bitsForTID0_5  Array[32:1]))
:extrafuns ((gtFIELD__is_PVRP__gtAGG____anonstruct_bitsForTID0_5  Array[32:2]))
:extrafuns ((gtFIELD__is_active_PVRP__gtAGG____anonstruct_bitsForTID0_5  Array[32:1]))
:extrafuns ((gtFIELD__is_PPVARP__gtAGG____anonstruct_bitsForTID0_5  Array[32:2]))
:extrafuns ((gtFIELD__is_active_PPVARP__gtAGG____anonstruct_bitsForTID0_5  Array[32:1]))
:extrafuns ((gtFIELD__is_PLRI__gtAGG____anonstruct_bitsForTID0_5  Array[32:2]))
:extrafuns ((gtFIELD__is_active_PLRI__gtAGG____anonstruct_bitsForTID0_5  Array[32:1]))
:extrafuns ((gtFIELD__is_PAVI__gtAGG____anonstruct_bitsForTID0_5_1_  Array[32:3]))
:extrafuns ((gtFIELD__is_PAVI__gtAGG____anonstruct_bitsForTID0_5_2_  Array[32:3]))
:extrafuns ((gtFIELD__is_active_PAVI__gtAGG____anonstruct_bitsForTID0_5  Array[32:1]))
:extrafuns ((sfEvent_  BitVec[32]))
:extrafuns ((gtFIELD__sent__gtAGG____anonstruct_D_Work_4  Array[32:32]))
:extrafuns ((gtFIELD__is_PAVI__gtAGG____anonstruct_bitsForTID0_5  Array[32:3]))
:extrapreds ((constraint170 ))
:extrapreds ((constraint169 ))
:extrapreds ((constraint168 ))
:extrapreds ((constraint167 ))
:extrapreds ((constraint166 ))
:extrapreds ((constraint165 ))
:extrapreds ((constraint164 ))
:extrapreds ((constraint163 ))
:extrapreds ((constraint162 ))
:extrapreds ((constraint161 ))
:extrapreds ((constraint160 ))
:extrapreds ((constraint159 ))
:extrapreds ((constraint158 ))
:extrapreds ((constraint157 ))
:extrapreds ((constraint156 ))
:extrapreds ((constraint155 ))
:extrapreds ((constraint154 ))
:extrapreds ((constraint153 ))
:extrapreds ((constraint152 ))
:extrapreds ((constraint151 ))
:extrapreds ((constraint150 ))
:extrapreds ((constraint149 ))
:extrapreds ((constraint148 ))
:extrapreds ((constraint147 ))
:extrapreds ((constraint146 ))
:extrapreds ((constraint145 ))
:extrapreds ((constraint144 ))
:extrapreds ((constraint143 ))
:extrapreds ((constraint142 ))
:extrapreds ((constraint141 ))
:extrapreds ((constraint140 ))
:extrapreds ((constraint139 ))
:extrapreds ((constraint138 ))
:extrapreds ((constraint137 ))
:extrapreds ((constraint136 ))
:extrapreds ((constraint135 ))
:extrapreds ((constraint134 ))
:extrapreds ((constraint133 ))
:extrapreds ((constraint132 ))
:extrapreds ((constraint131 ))
:extrapreds ((constraint130 ))
:extrapreds ((constraint129 ))
:extrapreds ((constraint128 ))
:extrapreds ((constraint127 ))
:extrapreds ((constraint126 ))
:extrapreds ((constraint125 ))
:extrapreds ((constraint124 ))
:extrapreds ((constraint123 ))
:extrapreds ((constraint122 ))
:extrapreds ((constraint121 ))
:extrapreds ((constraint120 ))
:extrapreds ((constraint119 ))
:extrapreds ((constraint118 ))
:extrapreds ((constraint117 ))
:extrapreds ((constraint116 ))
:extrapreds ((constraint115 ))
:extrapreds ((constraint114 ))
:extrapreds ((constraint113 ))
:extrapreds ((constraint112 ))
:extrapreds ((constraint111 ))
:extrapreds ((constraint110 ))
:extrapreds ((constraint109 ))
:extrapreds ((constraint108 ))
:extrapreds ((constraint107 ))
:extrapreds ((constraint106 ))
:extrapreds ((constraint105 ))
:extrapreds ((constraint104 ))
:extrapreds ((constraint103 ))
:extrapreds ((constraint102 ))
:extrapreds ((constraint101 ))
:extrapreds ((constraint100 ))
:extrapreds ((constraint99 ))
:extrapreds ((constraint98 ))
:extrapreds ((constraint97 ))
:extrapreds ((constraint96 ))
:extrapreds ((constraint95 ))
:extrapreds ((constraint94 ))
:extrapreds ((constraint93 ))
:extrapreds ((constraint92 ))
:extrapreds ((constraint91 ))
:extrapreds ((constraint90 ))
:extrapreds ((constraint89 ))
:extrapreds ((constraint88 ))
:extrapreds ((constraint87 ))
:extrapreds ((constraint86 ))
:extrapreds ((constraint85 ))
:extrapreds ((constraint84 ))
:extrapreds ((constraint83 ))
:extrapreds ((constraint82 ))
:extrapreds ((constraint81 ))
:extrapreds ((constraint80 ))
:extrapreds ((constraint79 ))
:extrapreds ((constraint78 ))
:extrapreds ((constraint77 ))
:extrapreds ((constraint76 ))
:extrapreds ((constraint75 ))
:extrapreds ((constraint74 ))
:extrapreds ((constraint73 ))
:extrapreds ((constraint72 ))
:extrapreds ((constraint71 ))
:extrapreds ((constraint70 ))
:extrapreds ((constraint69 ))
:extrapreds ((constraint68 ))
:extrapreds ((constraint67 ))
:extrapreds ((constraint66 ))
:extrapreds ((constraint65 ))
:extrapreds ((constraint64 ))
:extrapreds ((constraint63 ))
:extrapreds ((constraint62 ))
:extrapreds ((constraint61 ))
:extrapreds ((constraint60 ))
:extrapreds ((constraint59 ))
:extrapreds ((constraint58 ))
:extrapreds ((constraint57 ))
:extrapreds ((constraint56 ))
:extrapreds ((constraint55 ))
:extrapreds ((constraint54 ))
:extrapreds ((constraint53 ))
:extrapreds ((constraint52 ))
:extrapreds ((constraint51 ))
:extrapreds ((constraint50 ))
:extrapreds ((constraint49 ))
:extrapreds ((constraint48 ))
:extrapreds ((constraint47 ))
:extrapreds ((constraint46 ))
:extrapreds ((constraint45 ))
:extrapreds ((constraint44 ))
:extrapreds ((constraint43 ))
:extrapreds ((constraint42 ))
:extrapreds ((constraint41 ))
:extrapreds ((constraint40 ))
:extrapreds ((constraint39 ))
:extrapreds ((constraint38 ))
:extrapreds ((constraint37 ))
:extrapreds ((constraint36 ))
:extrapreds ((constraint35 ))
:extrapreds ((constraint34 ))
:extrapreds ((constraint33 ))
:extrapreds ((constraint32 ))
:extrapreds ((constraint31 ))
:extrapreds ((constraint30 ))
:extrapreds ((constraint29 ))
:extrapreds ((constraint28 ))
:extrapreds ((constraint27 ))
:extrapreds ((constraint26 ))
:extrapreds ((constraint25 ))
:extrapreds ((constraint24 ))
:extrapreds ((constraint23 ))
:extrapreds ((constraint22 ))
:extrapreds ((constraint21 ))
:extrapreds ((constraint20 ))
:extrapreds ((constraint19 ))
:extrapreds ((constraint18 ))
:extrapreds ((constraint17 ))
:extrapreds ((constraint16 ))
:extrapreds ((constraint15 ))
:extrapreds ((constraint14 ))
:extrapreds ((constraint13 ))
:extrapreds ((constraint12 ))
:extrapreds ((constraint11 ))
:extrapreds ((constraint10 ))
:extrapreds ((constraint9 ))
:extrapreds ((constraint8 ))
:extrapreds ((constraint7 ))
:extrapreds ((constraint6 ))
:extrapreds ((constraint5 ))
:extrapreds ((constraint4 ))
:extrapreds ((constraint3 ))
:extrapreds ((constraint2 ))
:extrapreds ((constraint1 ))
:extrapreds ((constraint0 ))
:formula
(flet ($x855 (and constraint0 constraint1 constraint2 constraint3 constraint4 constraint5 constraint6 constraint7 constraint8 constraint9 constraint10 constraint11 constraint12 constraint13 constraint14 constraint15 constraint16 constraint17 constraint18 constraint19 constraint20 constraint21 constraint22 constraint23 constraint24 constraint25 constraint26 constraint27 constraint28 constraint29 constraint30 constraint31 constraint32 constraint33 constraint34 constraint35 constraint36 constraint37 constraint38 constraint39 constraint40 constraint41 constraint42 constraint43 constraint44 constraint45 constraint46 constraint47 constraint48 constraint49 constraint50 constraint51 constraint52 constraint53 constraint54 constraint55 constraint56 constraint57 constraint58 constraint59 constraint60 constraint61 constraint62 constraint63 constraint64 constraint65 constraint66 constraint67 constraint68 constraint69 constraint70 constraint71 constraint72 constraint73 constraint74 constraint75 constraint76 constraint77 constraint78 constraint79 constraint80 constraint81 constraint82 constraint83 constraint84 constraint85 constraint86 constraint87 constraint88 constraint89 constraint90 constraint91 constraint92 constraint93 constraint94 constraint95 constraint96 constraint97 constraint98 constraint99 constraint100 constraint101 constraint102 constraint103 constraint104 constraint105 constraint106 constraint107 constraint108 constraint109 constraint110 constraint111 constraint112 constraint113 constraint114 constraint115 constraint116 constraint117 constraint118 constraint119 constraint120 constraint121 constraint122 constraint123 constraint124 constraint125 constraint126 constraint127 constraint128 constraint129 constraint130 constraint131 constraint132 constraint133 constraint134 constraint135 constraint136 constraint137 constraint138 constraint139 constraint140 constraint141 constraint142 constraint143 constraint144 constraint145 constraint146 constraint147 constraint148 constraint149 constraint150 constraint151 constraint152 constraint153 constraint154 constraint155 constraint156 constraint157 constraint158 constraint159 constraint160 constraint161 constraint162 constraint163 constraint164 constraint165 constraint166 constraint167 constraint168 constraint169 constraint170))
(flet ($x511 (= gtINDEX100 (select gtFIELD__bitsForTID0__gtAGG____anonstruct_D_Work_4 gtINDEX99)))
(flet ($x507 (= gtINDEX98 (select gtFIELD__bitsForTID0__gtAGG____anonstruct_D_Work_4 gtINDEX97)))
(flet ($x503 (= gtINDEX96 (select gtFIELD__bitsForTID0__gtAGG____anonstruct_D_Work_4 gtINDEX95)))
(flet ($x499 (= gtINDEX94 (select gtFIELD__bitsForTID0__gtAGG____anonstruct_D_Work_4 gtINDEX93)))
(flet ($x491 (= gtINDEX88 (select gtFIELD__bitsForTID0__gtAGG____anonstruct_D_Work_4 gtINDEX87)))
(flet ($x487 (= gtINDEX86 (select gtFIELD__bitsForTID0__gtAGG____anonstruct_D_Work_4 gtINDEX85)))
(flet ($x482 (= gtINDEX83 (select gtFIELD__bitsForTID0__gtAGG____anonstruct_D_Work_4 gtINDEX82)))
(flet ($x478 (= gtINDEX81 (select gtFIELD__bitsForTID0__gtAGG____anonstruct_D_Work_4 gtINDEX80)))
(flet ($x473 (= gtINDEX78 (select gtFIELD__bitsForTID0__gtAGG____anonstruct_D_Work_4 gtINDEX77)))
(flet ($x469 (= gtINDEX76 (select gtFIELD__bitsForTID0__gtAGG____anonstruct_D_Work_4 gtINDEX75)))
(flet ($x465 (= gtINDEX74 (select gtFIELD__bitsForTID0__gtAGG____anonstruct_D_Work_4 gtINDEX73)))
(flet ($x460 (= gtINDEX71 (select gtFIELD__bitsForTID0__gtAGG____anonstruct_D_Work_4 gtINDEX70)))
(flet ($x456 (= gtINDEX69 (select gtFIELD__bitsForTID0__gtAGG____anonstruct_D_Work_4 gtINDEX68)))
(flet ($x452 (= gtINDEX67 (select gtFIELD__bitsForTID0__gtAGG____anonstruct_D_Work_4 gtINDEX66)))
(flet ($x448 (= gtINDEX65 (select gtFIELD__bitsForTID0__gtAGG____anonstruct_D_Work_4 gtINDEX64)))
(flet ($x444 (= gtINDEX63 (select gtFIELD__bitsForTID0__gtAGG____anonstruct_D_Work_4 gtINDEX62)))
(flet ($x440 (= gtINDEX61 (select gtFIELD__bitsForTID0__gtAGG____anonstruct_D_Work_4 gtINDEX60)))
(flet ($x436 (= gtINDEX59 (select gtFIELD__bitsForTID0__gtAGG____anonstruct_D_Work_4 gtINDEX58)))
(flet ($x432 (= gtINDEX57 (select gtFIELD__bitsForTID0__gtAGG____anonstruct_D_Work_4 gtINDEX56)))
(flet ($x428 (= gtINDEX55 (select gtFIELD__bitsForTID0__gtAGG____anonstruct_D_Work_4 gtINDEX54)))
(flet ($x424 (= gtINDEX53 (select gtFIELD__bitsForTID0__gtAGG____anonstruct_D_Work_4 gtINDEX52)))
(flet ($x420 (= gtINDEX51 (select gtFIELD__bitsForTID0__gtAGG____anonstruct_D_Work_4 gtINDEX50)))
(flet ($x416 (= gtINDEX49 (select gtFIELD__bitsForTID0__gtAGG____anonstruct_D_Work_4 gtINDEX48)))
(flet ($x412 (= gtINDEX47 (select gtFIELD__bitsForTID0__gtAGG____anonstruct_D_Work_4 gtINDEX46)))
(flet ($x405 (= gtINDEX42 (select gtFIELD__bitsForTID0__gtAGG____anonstruct_D_Work_4 gtINDEX41)))
(flet ($x401 (= gtINDEX40 (select gtFIELD__bitsForTID0__gtAGG____anonstruct_D_Work_4 gtINDEX39)))
(flet ($x396 (= gtINDEX37 (select gtFIELD__bitsForTID0__gtAGG____anonstruct_D_Work_4 gtINDEX36)))
(flet ($x392 (= gtINDEX35 (select gtFIELD__bitsForTID0__gtAGG____anonstruct_D_Work_4 gtINDEX34)))
(flet ($x387 (= gtINDEX32 (select gtFIELD__bitsForTID0__gtAGG____anonstruct_D_Work_4 gtINDEX31)))
(flet ($x383 (= gtINDEX30 (select gtFIELD__bitsForTID0__gtAGG____anonstruct_D_Work_4 gtINDEX29)))
(flet ($x379 (= gtINDEX28 (select gtFIELD__bitsForTID0__gtAGG____anonstruct_D_Work_4 gtINDEX27)))
(flet ($x374 (= gtINDEX25 (select gtFIELD__bitsForTID0__gtAGG____anonstruct_D_Work_4 gtINDEX24)))
(flet ($x370 (= gtINDEX23 (select gtFIELD__bitsForTID0__gtAGG____anonstruct_D_Work_4 gtINDEX22)))
(flet ($x366 (= gtINDEX21 (select gtFIELD__bitsForTID0__gtAGG____anonstruct_D_Work_4 gtINDEX20)))
(flet ($x362 (= gtINDEX19 (select gtFIELD__bitsForTID0__gtAGG____anonstruct_D_Work_4 gtINDEX18)))
(flet ($x358 (= gtINDEX17 (select gtFIELD__bitsForTID0__gtAGG____anonstruct_D_Work_4 gtINDEX16)))
(flet ($x354 (= gtINDEX15 (select gtFIELD__bitsForTID0__gtAGG____anonstruct_D_Work_4 gtINDEX14)))
(flet ($x350 (= gtINDEX13 (select gtFIELD__bitsForTID0__gtAGG____anonstruct_D_Work_4 gtINDEX12)))
(flet ($x346 (= gtINDEX11 (select gtFIELD__bitsForTID0__gtAGG____anonstruct_D_Work_4 gtINDEX10)))
(flet ($x342 (= gtINDEX9 (select gtFIELD__bitsForTID0__gtAGG____anonstruct_D_Work_4 gtINDEX8)))
(flet ($x338 (= gtINDEX7 (select gtFIELD__bitsForTID0__gtAGG____anonstruct_D_Work_4 gtINDEX6)))
(flet ($x334 (= gtINDEX5 (select gtFIELD__bitsForTID0__gtAGG____anonstruct_D_Work_4 gtINDEX4)))
(flet ($x330 (= gtINDEX3 (select gtFIELD__bitsForTID0__gtAGG____anonstruct_D_Work_4 gtINDEX2)))
(flet ($x326 (= gtINDEX1 (select gtFIELD__bitsForTID0__gtAGG____anonstruct_D_Work_4 gtINDEX0)))
(let (?x310 (extract[0:0] bv1[32]))
(let (?x320 (store gtFIELD__is_Eng__gtAGG____anonstruct_bitsForTID0_5_1_ gtINDEX100 ?x310))
(flet ($x651 (iff constraint69 (= gtFIELD__is_Eng__gtAGG____anonstruct_bitsForTID0_5_2_ ?x320)))
(let (?x316 (select gtFIELD__is_Eng__gtAGG____anonstruct_bitsForTID0_5_1_ gtINDEX98))
(let (?x311 (store gtFIELD__is_Eng__gtAGG____anonstruct_bitsForTID0_5 gtINDEX96 ?x310))
(flet ($x645 (iff constraint66 (= gtFIELD__is_Eng__gtAGG____anonstruct_bitsForTID0_5_1_ ?x311)))
(let (?x307 (zero_extend[31] (select gtFIELD__is_Eng__gtAGG____anonstruct_bitsForTID0_5 gtINDEX94)))
(let (?x303 (store gtFIELD__sent__gtAGG____anonstruct_D_Work_4_1_ gtINDEX92 bv0[32]))
(flet ($x641 (iff constraint64 (= gtFIELD__sent__gtAGG____anonstruct_D_Work_4_2_ ?x303)))
(let (?x172 (bvmul bv4294967295[32] bv1[32]))
(flet ($x301 (= (select gtFIELD__sent__gtAGG____anonstruct_D_Work_4_1_ gtINDEX91) ?x172))
(flet ($x297 (= (select gtFIELD__sent__gtAGG____anonstruct_D_Work_4_1_ gtINDEX90) bv9[32]))
(flet ($x293 (= (select gtFIELD__sent__gtAGG____anonstruct_D_Work_4_1_ gtINDEX89) bv4[32]))
(let (?x289 (zero_extend[31] (select gtFIELD__is_Eng__gtAGG____anonstruct_bitsForTID0_5 gtINDEX88)))
(let (?x283 (select gtFIELD__is_active_Eng__gtAGG____anonstruct_bitsForTID0_5 gtINDEX86))
(flet ($x280 (= (select gtFIELD__sent__gtAGG____anonstruct_D_Work_4_1_ gtINDEX84) bv0[32]))
(let (?x275 (select gtFIELD__is_PURI__gtAGG____anonstruct_bitsForTID0_5 gtINDEX83))
(let (?x270 (select gtFIELD__is_active_PURI__gtAGG____anonstruct_bitsForTID0_5 gtINDEX81))
(flet ($x267 (= (select gtFIELD__sent__gtAGG____anonstruct_D_Work_4_1_ gtINDEX79) bv0[32]))
(let (?x262 (select gtFIELD__is_PVRP__gtAGG____anonstruct_bitsForTID0_5 gtINDEX78))
(let (?x257 (select gtFIELD__is_PVRP__gtAGG____anonstruct_bitsForTID0_5 gtINDEX76))
(let (?x252 (select gtFIELD__is_active_PVRP__gtAGG____anonstruct_bitsForTID0_5 gtINDEX74))
(flet ($x249 (= (select gtFIELD__sent__gtAGG____anonstruct_D_Work_4_1_ gtINDEX72) bv0[32]))
(let (?x244 (select gtFIELD__is_PPVARP__gtAGG____anonstruct_bitsForTID0_5 gtINDEX71))
(let (?x239 (select gtFIELD__is_PPVARP__gtAGG____anonstruct_bitsForTID0_5 gtINDEX69))
(let (?x234 (select gtFIELD__is_PPVARP__gtAGG____anonstruct_bitsForTID0_5 gtINDEX67))
(let (?x229 (select gtFIELD__is_active_PPVARP__gtAGG____anonstruct_bitsForTID0_5 gtINDEX65))
(let (?x221 (select gtFIELD__is_PLRI__gtAGG____anonstruct_bitsForTID0_5 gtINDEX63))
(let (?x216 (select gtFIELD__is_PLRI__gtAGG____anonstruct_bitsForTID0_5 gtINDEX61))
(let (?x211 (select gtFIELD__is_active_PLRI__gtAGG____anonstruct_bitsForTID0_5 gtINDEX59))
(let (?x77 (extract[2:0] bv0[32]))
(let (?x208 (store gtFIELD__is_PAVI__gtAGG____anonstruct_bitsForTID0_5_1_ gtINDEX57 ?x77))
(flet ($x591 (iff constraint39 (= gtFIELD__is_PAVI__gtAGG____anonstruct_bitsForTID0_5_2_ ?x208)))
(let (?x203 (select gtFIELD__is_PAVI__gtAGG____anonstruct_bitsForTID0_5_1_ gtINDEX55))
(let (?x198 (select gtFIELD__is_PAVI__gtAGG____anonstruct_bitsForTID0_5_1_ gtINDEX53))
(let (?x193 (select gtFIELD__is_PAVI__gtAGG____anonstruct_bitsForTID0_5_1_ gtINDEX51))
(let (?x188 (select gtFIELD__is_PAVI__gtAGG____anonstruct_bitsForTID0_5_1_ gtINDEX49))
(let (?x183 (select gtFIELD__is_active_PAVI__gtAGG____anonstruct_bitsForTID0_5 gtINDEX47))
(flet ($x174 (= gtFIELD__sent__gtAGG____anonstruct_D_Work_4_1_ (store gtFIELD__sent__gtAGG____anonstruct_D_Work_4 gtINDEX45 ?x172)))
(flet ($x169 (= (select gtFIELD__sent__gtAGG____anonstruct_D_Work_4 gtINDEX44) bv9[32]))
(flet ($x164 (= (select gtFIELD__sent__gtAGG____anonstruct_D_Work_4 gtINDEX43) bv4[32]))
(let (?x160 (zero_extend[31] (select gtFIELD__is_Eng__gtAGG____anonstruct_bitsForTID0_5 gtINDEX42)))
(let (?x154 (select gtFIELD__is_active_Eng__gtAGG____anonstruct_bitsForTID0_5 gtINDEX40))
(flet ($x151 (= (select gtFIELD__sent__gtAGG____anonstruct_D_Work_4 gtINDEX38) bv0[32]))
(let (?x146 (select gtFIELD__is_PURI__gtAGG____anonstruct_bitsForTID0_5 gtINDEX37))
(let (?x141 (select gtFIELD__is_active_PURI__gtAGG____anonstruct_bitsForTID0_5 gtINDEX35))
(flet ($x138 (= (select gtFIELD__sent__gtAGG____anonstruct_D_Work_4 gtINDEX33) bv0[32]))
(let (?x133 (select gtFIELD__is_PVRP__gtAGG____anonstruct_bitsForTID0_5 gtINDEX32))
(let (?x128 (select gtFIELD__is_PVRP__gtAGG____anonstruct_bitsForTID0_5 gtINDEX30))
(let (?x123 (select gtFIELD__is_active_PVRP__gtAGG____anonstruct_bitsForTID0_5 gtINDEX28))
(flet ($x120 (= (select gtFIELD__sent__gtAGG____anonstruct_D_Work_4 gtINDEX26) bv0[32]))
(let (?x115 (select gtFIELD__is_PPVARP__gtAGG____anonstruct_bitsForTID0_5 gtINDEX25))
(let (?x110 (select gtFIELD__is_PPVARP__gtAGG____anonstruct_bitsForTID0_5 gtINDEX23))
(let (?x105 (select gtFIELD__is_PPVARP__gtAGG____anonstruct_bitsForTID0_5 gtINDEX21))
(let (?x100 (select gtFIELD__is_active_PPVARP__gtAGG____anonstruct_bitsForTID0_5 gtINDEX19))
(let (?x91 (select gtFIELD__is_PLRI__gtAGG____anonstruct_bitsForTID0_5 gtINDEX17))
(let (?x86 (select gtFIELD__is_PLRI__gtAGG____anonstruct_bitsForTID0_5 gtINDEX15))
(let (?x81 (select gtFIELD__is_active_PLRI__gtAGG____anonstruct_bitsForTID0_5 gtINDEX13))
(let (?x78 (store gtFIELD__is_PAVI__gtAGG____anonstruct_bitsForTID0_5 gtINDEX11 ?x77))
(flet ($x525 (iff constraint6 (= gtFIELD__is_PAVI__gtAGG____anonstruct_bitsForTID0_5_1_ ?x78)))
(let (?x72 (zero_extend[29] (select gtFIELD__is_PAVI__gtAGG____anonstruct_bitsForTID0_5 gtINDEX9)))
(let (?x66 (zero_extend[29] (select gtFIELD__is_PAVI__gtAGG____anonstruct_bitsForTID0_5 gtINDEX7)))
(let (?x60 (zero_extend[29] (select gtFIELD__is_PAVI__gtAGG____anonstruct_bitsForTID0_5 gtINDEX5)))
(let (?x54 (zero_extend[29] (select gtFIELD__is_PAVI__gtAGG____anonstruct_bitsForTID0_5 gtINDEX3)))
(let (?x47 (select gtFIELD__is_active_PAVI__gtAGG____anonstruct_bitsForTID0_5 gtINDEX1))
(flet ($x854 (and (iff constraint0 (not (= sfEvent_ bv8[32]))) (iff constraint1 (not (= (zero_extend[31] ?x47) bv0[32]))) (iff constraint2 (not (= ?x54 bv1[32]))) (iff constraint3 (not (= ?x60 bv2[32]))) (iff constraint4 (not (= ?x66 bv3[32]))) (iff constraint5 (not (= ?x72 bv4[32]))) $x525 (iff constraint7 (not (= (zero_extend[31] ?x81) bv0[32]))) (iff constraint8 (not (= (zero_extend[30] ?x86) bv1[32]))) (iff constraint9 (= (zero_extend[30] ?x91) bv2[32])) (iff constraint10 (not (= sfEvent_ bv4[32]))) (iff constraint11 (not (= sfEvent_ bv5[32]))) (iff constraint12 (not (= (zero_extend[31] ?x100) bv0[32]))) (iff constraint13 (not (= (zero_extend[30] ?x105) bv1[32]))) (iff constraint14 (not (= (zero_extend[30] ?x110) bv2[32]))) (iff constraint15 (= (zero_extend[30] ?x115) bv3[32])) (iff constraint16 (not $x120)) (iff constraint17 (not (= (zero_extend[31] ?x123) bv0[32]))) (iff constraint18 (not (= (zero_extend[30] ?x128) bv1[32]))) (iff constraint19 (= (zero_extend[30] ?x133) bv2[32])) (iff constraint20 (not $x138)) (iff constraint21 (not (= (zero_extend[31] ?x141) bv0[32]))) (iff constraint22 (= (zero_extend[30] ?x146) bv1[32])) (iff constraint23 (not (= sfEvent_ bv4[32]))) (iff constraint24 (not (= sfEvent_ bv5[32]))) (iff constraint25 (not $x151)) (iff constraint26 (not (= (zero_extend[31] ?x154) bv0[32]))) (iff constraint27 (= ?x160 bv1[32])) (iff constraint28 (not $x164)) (iff constraint29 $x169) (iff constraint30 $x174) (iff constraint31 (= sf_previousEvent_1_ sfEvent_)) (iff constraint32 (= sfEvent__1_ bv6[32])) (iff constraint33 (not (= sfEvent__1_ bv8[32]))) (iff constraint34 (not (= (zero_extend[31] ?x183) bv0[32]))) (iff constraint35 (not (= (zero_extend[29] ?x188) bv1[32]))) (iff constraint36 (not (= (zero_extend[29] ?x193) bv2[32]))) (iff constraint37 (not (= (zero_extend[29] ?x198) bv3[32]))) (iff constraint38 (not (= (zero_extend[29] ?x203) bv4[32]))) $x591 (iff constraint40 (not (= (zero_extend[31] ?x211) bv0[32]))) (iff constraint41 (not (= (zero_extend[30] ?x216) bv1[32]))) (iff constraint42 (= (zero_extend[30] ?x221) bv2[32])) (iff constraint43 (not (= sfEvent__1_ bv4[32]))) (iff constraint44 (not (= sfEvent__1_ bv5[32]))) (iff constraint45 (not (= (zero_extend[31] ?x229) bv0[32]))) (iff constraint46 (not (= (zero_extend[30] ?x234) bv1[32]))) (iff constraint47 (not (= (zero_extend[30] ?x239) bv2[32]))) (iff constraint48 (= (zero_extend[30] ?x244) bv3[32])) (iff constraint49 (not $x249)) (iff constraint50 (not (= (zero_extend[31] ?x252) bv0[32]))) (iff constraint51 (not (= (zero_extend[30] ?x257) bv1[32]))) (iff constraint52 (= (zero_extend[30] ?x262) bv2[32])) (iff constraint53 (not $x267)) (iff constraint54 (not (= (zero_extend[31] ?x270) bv0[32]))) (iff constraint55 (= (zero_extend[30] ?x275) bv1[32])) (iff constraint56 (not (= sfEvent__1_ bv4[32]))) (iff constraint57 (not (= sfEvent__1_ bv5[32]))) (iff constraint58 (not $x280)) (iff constraint59 (not (= (zero_extend[31] ?x283) bv0[32]))) (iff constraint60 (= ?x289 bv1[32])) (iff constraint61 (not $x293)) (iff constraint62 (not $x297)) (iff constraint63 $x301) $x641 (iff constraint65 (= ?x307 bv1[32])) $x645 (iff constraint67 (= sfEvent__2_ sf_previousEvent_1_)) (iff constraint68 (= (zero_extend[31] ?x316) bv1[32])) $x651 (iff constraint70 (= gtINDEX0 gtAGG__rtDWork)) (iff constraint71 $x326) (iff constraint72 (= gtINDEX2 gtAGG__rtDWork)) (iff constraint73 $x330) (iff constraint74 (= gtINDEX4 gtAGG__rtDWork)) (iff constraint75 $x334) (iff constraint76 (= gtINDEX6 gtAGG__rtDWork)) (iff constraint77 $x338) (iff constraint78 (= gtINDEX8 gtAGG__rtDWork)) (iff constraint79 $x342) (iff constraint80 (= gtINDEX10 gtAGG__rtDWork)) (iff constraint81 $x346) (iff constraint82 (= gtINDEX12 gtAGG__rtDWork)) (iff constraint83 $x350) (iff constraint84 (= gtINDEX14 gtAGG__rtDWork)) (iff constraint85 $x354) (iff constraint86 (= gtINDEX16 gtAGG__rtDWork)) (iff constraint87 $x358) (iff constraint88 (= gtINDEX18 gtAGG__rtDWork)) (iff constraint89 $x362) (iff constraint90 (= gtINDEX20 gtAGG__rtDWork)) (iff constraint91 $x366) (iff constraint92 (= gtINDEX22 gtAGG__rtDWork)) (iff constraint93 $x370) (iff constraint94 (= gtINDEX24 gtAGG__rtDWork)) (iff constraint95 $x374) (iff constraint96 (= gtINDEX26 gtAGG__rtDWork)) (iff constraint97 (= gtINDEX27 gtAGG__rtDWork)) (iff constraint98 $x379) (iff constraint99 (= gtINDEX29 gtAGG__rtDWork)) (iff constraint100 $x383) (iff constraint101 (= gtINDEX31 gtAGG__rtDWork)) (iff constraint102 $x387) (iff constraint103 (= gtINDEX33 gtAGG__rtDWork)) (iff constraint104 (= gtINDEX34 gtAGG__rtDWork)) (iff constraint105 $x392) (iff constraint106 (= gtINDEX36 gtAGG__rtDWork)) (iff constraint107 $x396) (iff constraint108 (= gtINDEX38 gtAGG__rtDWork)) (iff constraint109 (= gtINDEX39 gtAGG__rtDWork)) (iff constraint110 $x401) (iff constraint111 (= gtINDEX41 gtAGG__rtDWork)) (iff constraint112 $x405) (iff constraint113 (= gtINDEX43 gtAGG__rtDWork)) (iff constraint114 (= gtINDEX44 gtAGG__rtDWork)) (iff constraint115 (= gtINDEX45 gtAGG__rtDWork)) (iff constraint116 (= gtINDEX46 gtAGG__rtDWork)) (iff constraint117 $x412) (iff constraint118 (= gtINDEX48 gtAGG__rtDWork)) (iff constraint119 $x416) (iff constraint120 (= gtINDEX50 gtAGG__rtDWork)) (iff constraint121 $x420) (iff constraint122 (= gtINDEX52 gtAGG__rtDWork)) (iff constraint123 $x424) (iff constraint124 (= gtINDEX54 gtAGG__rtDWork)) (iff constraint125 $x428) (iff constraint126 (= gtINDEX56 gtAGG__rtDWork)) (iff constraint127 $x432) (iff constraint128 (= gtINDEX58 gtAGG__rtDWork)) (iff constraint129 $x436) (iff constraint130 (= gtINDEX60 gtAGG__rtDWork)) (iff constraint131 $x440) (iff constraint132 (= gtINDEX62 gtAGG__rtDWork)) (iff constraint133 $x444) (iff constraint134 (= gtINDEX64 gtAGG__rtDWork)) (iff constraint135 $x448) (iff constraint136 (= gtINDEX66 gtAGG__rtDWork)) (iff constraint137 $x452) (iff constraint138 (= gtINDEX68 gtAGG__rtDWork)) (iff constraint139 $x456) (iff constraint140 (= gtINDEX70 gtAGG__rtDWork)) (iff constraint141 $x460) (iff constraint142 (= gtINDEX72 gtAGG__rtDWork)) (iff constraint143 (= gtINDEX73 gtAGG__rtDWork)) (iff constraint144 $x465) (iff constraint145 (= gtINDEX75 gtAGG__rtDWork)) (iff constraint146 $x469) (iff constraint147 (= gtINDEX77 gtAGG__rtDWork)) (iff constraint148 $x473) (iff constraint149 (= gtINDEX79 gtAGG__rtDWork)) (iff constraint150 (= gtINDEX80 gtAGG__rtDWork)) (iff constraint151 $x478) (iff constraint152 (= gtINDEX82 gtAGG__rtDWork)) (iff constraint153 $x482) (iff constraint154 (= gtINDEX84 gtAGG__rtDWork)) (iff constraint155 (= gtINDEX85 gtAGG__rtDWork)) (iff constraint156 $x487) (iff constraint157 (= gtINDEX87 gtAGG__rtDWork)) (iff constraint158 $x491) (iff constraint159 (= gtINDEX89 gtAGG__rtDWork)) (iff constraint160 (= gtINDEX90 gtAGG__rtDWork)) (iff constraint161 (= gtINDEX91 gtAGG__rtDWork)) (iff constraint162 (= gtINDEX92 gtAGG__rtDWork)) (iff constraint163 (= gtINDEX93 gtAGG__rtDWork)) (iff constraint164 $x499) (iff constraint165 (= gtINDEX95 gtAGG__rtDWork)) (iff constraint166 $x503) (iff constraint167 (= gtINDEX97 gtAGG__rtDWork)) (iff constraint168 $x507) (iff constraint169 (= gtINDEX99 gtAGG__rtDWork)) (iff constraint170 $x511)))
(and $x854 $x855))))))))))))))))))))))))))))))))))))))))))))))))))))))))))))))))))))))))))))))))))))))))))))))))))))))))))))))))
)
